; Copyright (c) 2026 The RIINA Authors. All rights reserved.
; Auto-generated from 02_FORMAL/coq/domains/MalaysiaCybersecurityAct.v (28 validations)
; Generated by scripts/generate-full-stack.py
;
; Translation Validation for MalaysiaCybersecurityAct
; Layer 9: Verifies compiler backend preserves formal semantics.
; Each assertion checks source IR ≡ target code for a proven property.

(set-logic QF_LIA)
(set-option :produce-models true)

; IR node representation
(declare-sort IRNode 0)
(declare-sort TargetNode 0)

; risk_level_nat: source semantics (matches Coq)
(declare-fun source_risk_level_nat () Bool)
(declare-fun target_risk_level_nat () Bool)
(assert (= source_risk_level_nat target_risk_level_nat))

; risk_assessment_current: source semantics (matches Coq)
(declare-fun source_risk_assessment_current () Bool)
(declare-fun target_risk_assessment_current () Bool)
(assert (= source_risk_assessment_current target_risk_assessment_current))

; audit_current: source semantics (matches Coq)
(declare-fun source_audit_current () Bool)
(declare-fun target_audit_current () Bool)
(assert (= source_audit_current target_audit_current))

; incident_reported_promptly: source semantics (matches Coq)
(declare-fun source_incident_reported_promptly () Bool)
(declare-fun target_incident_reported_promptly () Bool)
(assert (= source_incident_reported_promptly target_incident_reported_promptly))

; incident_report_complete: source semantics (matches Coq)
(declare-fun source_incident_report_complete () Bool)
(declare-fun target_incident_report_complete () Bool)
(assert (= source_incident_report_complete target_incident_report_complete))

; controls_sufficient: source semantics (matches Coq)
(declare-fun source_controls_sufficient () Bool)
(declare-fun target_controls_sufficient () Bool)
(assert (= source_controls_sufficient target_controls_sufficient))

; cssp_valid: source semantics (matches Coq)
(declare-fun source_cssp_valid () Bool)
(declare-fun target_cssp_valid () Bool)
(assert (= source_cssp_valid target_cssp_valid))

; act854_compliant: source semantics (matches Coq)
(declare-fun source_act854_compliant () Bool)
(declare-fun target_act854_compliant () Bool)
(assert (= source_act854_compliant target_act854_compliant))

; ceo_liability_applies: source semantics (matches Coq)
(declare-fun source_ceo_liability_applies () Bool)
(declare-fun target_ceo_liability_applies () Bool)
(assert (= source_ceo_liability_applies target_ceo_liability_applies))

; sector_critical: source semantics (matches Coq)
(declare-fun source_sector_critical () Bool)
(declare-fun target_sector_critical () Bool)
(assert (= source_sector_critical target_sector_critical))

; obligation_1_risk_assessment: translation preserves property (matches Coq: Theorem)
(declare-fun source_obligation_1_risk_assessment () Bool)
(declare-fun target_obligation_1_risk_assessment () Bool)
(assert (= source_obligation_1_risk_assessment target_obligation_1_risk_assessment))

; obligation_2_audit: translation preserves property (matches Coq: Theorem)
(declare-fun source_obligation_2_audit () Bool)
(declare-fun target_obligation_2_audit () Bool)
(assert (= source_obligation_2_audit target_obligation_2_audit))

; audit_expiry: translation preserves property (matches Coq: Theorem)
(declare-fun source_audit_expiry () Bool)
(declare-fun target_audit_expiry () Bool)
(assert (= source_audit_expiry target_audit_expiry))

; obligation_3_reporting: translation preserves property (matches Coq: Theorem)
(declare-fun source_obligation_3_reporting () Bool)
(declare-fun target_obligation_3_reporting () Bool)
(assert (= source_obligation_3_reporting target_obligation_3_reporting))

; severity_ordering: translation preserves property (matches Coq: Theorem)
(declare-fun source_severity_ordering () Bool)
(declare-fun target_severity_ordering () Bool)
(assert (= source_severity_ordering target_severity_ordering))

; obligation_4_controls: translation preserves property (matches Coq: Theorem)
(declare-fun source_obligation_4_controls () Bool)
(declare-fun target_obligation_4_controls () Bool)
(assert (= source_obligation_4_controls target_obligation_4_controls))

; obligation_5_cssp: translation preserves property (matches Coq: Theorem)
(declare-fun source_obligation_5_cssp () Bool)
(declare-fun target_obligation_5_cssp () Bool)
(assert (= source_obligation_5_cssp target_obligation_5_cssp))

; act854_composition: translation preserves property (matches Coq: Theorem)
(declare-fun source_act854_composition () Bool)
(declare-fun target_act854_composition () Bool)
(assert (= source_act854_composition target_act854_composition))

; ncii_sector_coverage: translation preserves property (matches Coq: Theorem)
(declare-fun source_ncii_sector_coverage () Bool)
(declare-fun target_ncii_sector_coverage () Bool)
(assert (= source_ncii_sector_coverage target_ncii_sector_coverage))

; critical_is_highest_risk: translation preserves property (matches Coq: Theorem)
(declare-fun source_critical_is_highest_risk () Bool)
(declare-fun target_critical_is_highest_risk () Bool)
(assert (= source_critical_is_highest_risk target_critical_is_highest_risk))

; low_is_lowest_risk: translation preserves property (matches Coq: Theorem)
(declare-fun source_low_is_lowest_risk () Bool)
(declare-fun target_low_is_lowest_risk () Bool)
(assert (= source_low_is_lowest_risk target_low_is_lowest_risk))

; risk_level_bounded: translation preserves property (matches Coq: Theorem)
(declare-fun source_risk_level_bounded () Bool)
(declare-fun target_risk_level_bounded () Bool)
(assert (= source_risk_level_bounded target_risk_level_bounded))

; risk_level_coverage: translation preserves property (matches Coq: Theorem)
(declare-fun source_risk_level_coverage () Bool)
(declare-fun target_risk_level_coverage () Bool)
(assert (= source_risk_level_coverage target_risk_level_coverage))

; audit_current_expiry_exclusive: translation preserves property (matches Coq: Theorem)
(declare-fun source_audit_current_expiry_exclusive () Bool)
(declare-fun target_audit_current_expiry_exclusive () Bool)
(assert (= source_audit_current_expiry_exclusive target_audit_current_expiry_exclusive))

; more_controls_still_sufficient: translation preserves property (matches Coq: Theorem)
(declare-fun source_more_controls_still_sufficient () Bool)
(declare-fun target_more_controls_still_sufficient () Bool)
(assert (= source_more_controls_still_sufficient target_more_controls_still_sufficient))

; act854_implies_risk_assessed: translation preserves property (matches Coq: Theorem)
(declare-fun source_act854_implies_risk_assessed () Bool)
(declare-fun target_act854_implies_risk_assessed () Bool)
(assert (= source_act854_implies_risk_assessed target_act854_implies_risk_assessed))

; act854_implies_audit_current: translation preserves property (matches Coq: Theorem)
(declare-fun source_act854_implies_audit_current () Bool)
(declare-fun target_act854_implies_audit_current () Bool)
(assert (= source_act854_implies_audit_current target_act854_implies_audit_current))

; act854_implies_controls: translation preserves property (matches Coq: Theorem)
(declare-fun source_act854_implies_controls () Bool)
(declare-fun target_act854_implies_controls () Bool)
(assert (= source_act854_implies_controls target_act854_implies_controls))

; act854_implies_cssp_valid: translation preserves property (matches Coq: Theorem)
(declare-fun source_act854_implies_cssp_valid () Bool)
(declare-fun target_act854_implies_cssp_valid () Bool)
(assert (= source_act854_implies_cssp_valid target_act854_implies_cssp_valid))

; cssp_expired: translation preserves property (matches Coq: Theorem)
(declare-fun source_cssp_expired () Bool)
(declare-fun target_cssp_expired () Bool)
(assert (= source_cssp_expired target_cssp_expired))

; cssp_unlicensed_invalid: translation preserves property (matches Coq: Theorem)
(declare-fun source_cssp_unlicensed_invalid () Bool)
(declare-fun target_cssp_unlicensed_invalid () Bool)
(assert (= source_cssp_unlicensed_invalid target_cssp_unlicensed_invalid))

; ceo_liable_when_negligent: translation preserves property (matches Coq: Theorem)
(declare-fun source_ceo_liable_when_negligent () Bool)
(declare-fun target_ceo_liable_when_negligent () Bool)
(assert (= source_ceo_liable_when_negligent target_ceo_liable_when_negligent))

; ceo_due_diligence_defense: translation preserves property (matches Coq: Theorem)
(declare-fun source_ceo_due_diligence_defense () Bool)
(declare-fun target_ceo_due_diligence_defense () Bool)
(assert (= source_ceo_due_diligence_defense target_ceo_due_diligence_defense))

; incident_6h_stricter_than_24h: translation preserves property (matches Coq: Theorem)
(declare-fun source_incident_6h_stricter_than_24h () Bool)
(declare-fun target_incident_6h_stricter_than_24h () Bool)
(assert (= source_incident_6h_stricter_than_24h target_incident_6h_stricter_than_24h))

; immediate_report_always_timely: translation preserves property (matches Coq: Theorem)
(declare-fun source_immediate_report_always_timely () Bool)
(declare-fun target_immediate_report_always_timely () Bool)
(assert (= source_immediate_report_always_timely target_immediate_report_always_timely))

; banking_is_critical: translation preserves property (matches Coq: Theorem)
(declare-fun source_banking_is_critical () Bool)
(declare-fun target_banking_is_critical () Bool)
(assert (= source_banking_is_critical target_banking_is_critical))

; defense_is_critical: translation preserves property (matches Coq: Theorem)
(declare-fun source_defense_is_critical () Bool)
(declare-fun target_defense_is_critical () Bool)
(assert (= source_defense_is_critical target_defense_is_critical))

; telecom_not_critical: translation preserves property (matches Coq: Theorem)
(declare-fun source_telecom_not_critical () Bool)
(declare-fun target_telecom_not_critical () Bool)
(assert (= source_telecom_not_critical target_telecom_not_critical))

; Verify all translation validations are satisfiable
(check-sat)
(exit)
